NAME          COPTPROB
OBJSENSE
  MIN
ROWS
 N  __OBJ___
 L  C34     
 L  C36     
 L  C53     
 L  C96     
 L  C112    
 L  C127    
 L  C131    
 L  C150    
 L  C188    
 L  C196    
COLUMNS
    MARKER    'MARKER'                 'INTORG'
    x21       __OBJ___  140
    x21       C150      -1
    x21       C196      -1
    x29       __OBJ___  339
    x29       C53       -1
    x29       C127      -1
    x41       __OBJ___  772
    x41       C112      -1
    x41       C188      -1
    x54       __OBJ___  25
    x54       C96       -1
    x139      __OBJ___  390
    x139      C34       -1
    x139      C150      -1
    x203      __OBJ___  137
    x203      C53       -1
    x209      __OBJ___  51
    x209      C112      -1
    x209      C196      -1
    x241      __OBJ___  323
    x241      C36       -1
    x241      C127      -1
    x245      __OBJ___  237
    x245      C96       -1
    x245      C131      -1
    x255      __OBJ___  11
    x255      C196      -1
    x274      __OBJ___  442
    x274      C34       -1
    x274      C53       -1
    x354      __OBJ___  229
    x354      C36       -1
    x354      C96       -1
    x367      __OBJ___  856
    x367      C131      -1
    x367      C188      -1
    MARKER    'MARKER'                 'INTEND'
RHS
    RHS       __OBJ___  -33915
    RHS       C34       -1
    RHS       C36       -1
    RHS       C53       -1
    RHS       C96       -1
    RHS       C112      -1
    RHS       C127      -1
    RHS       C131      -1
    RHS       C150      -1
    RHS       C188      -1
    RHS       C196      -1
BOUNDS
 UP BOUND     x21       1
 UP BOUND     x29       1
 UP BOUND     x41       1
 UP BOUND     x54       1
 UP BOUND     x139      1
 UP BOUND     x203      1
 UP BOUND     x209      1
 UP BOUND     x241      1
 UP BOUND     x245      1
 UP BOUND     x255      1
 UP BOUND     x274      1
 UP BOUND     x354      1
 UP BOUND     x367      1
ENDATA
